r = 16; % rows
c = 16; % column
nmines = 40;
game = [|1,1,1,X,1,1,1,1,1,1,1,X,X,1,X,X,
        |X,2,2,2,2,2,X,2,2,X,1,1,2,3,3,2,
        |2,X,1,1,X,2,3,X,4,2,2,1,X,X,1,X,
        |1,1,1,1,1,1,2,X,3,X,1,1,2,2,1,X,
        |X,X,X,X,X,X,1,1,2,1,1,1,1,1,X,X,
        |X,X,X,X,1,1,1,X,X,X,X,1,X,1,1,1,
        |X,X,X,X,1,X,1,1,2,2,1,1,2,2,2,X,
        |X,X,X,X,1,1,1,2,X,X,1,X,1,X,2,1,
        |X,X,X,X,X,X,X,3,X,4,2,1,3,2,3,1,
        |X,X,X,X,1,1,1,3,X,4,3,X,3,X,2,X,
        |1,1,1,X,1,X,2,4,X,X,3,X,4,2,2,1,
        |2,X,2,X,1,2,X,3,X,4,3,3,X,1,X,X,
        |2,X,3,1,1,2,3,3,2,2,X,2,1,1,X,X,
        |1,2,X,1,1,X,2,X,1,1,1,1,X,X,X,X,
        |X,1,2,2,3,2,3,1,1,X,X,X,X,1,1,1,
        |X,X,1,X,2,X,1,X,X,X,X,X,X,1,X,1|];



 % 0 0 0 1 0 0 0 0 0 0 0 0 0 0 1 1
 % 1 0 0 0 0 0 1 0 0 1 0 0 0 0 0 0
 % 0 1 0 0 1 0 0 1 0 0 0 0 1 1 0 0
 % 0 0 0 0 0 0 0 1 0 1 0 0 0 0 0 0
 % 0 0 0 0 0 0 0 0 0 0 0 0 0 0 0 0
 % 0 0 0 0 0 0 0 0 0 0 0 0 1 0 0 0
 % 0 0 0 0 0 1 0 0 0 0 0 0 0 0 0 1
 % 0 0 0 0 0 0 0 0 1 1 0 0 0 1 0 0
 % 0 0 0 0 0 0 0 0 1 0 0 0 0 0 0 0
 % 0 0 0 0 0 0 0 0 1 0 0 1 0 1 0 1
 % 0 0 0 0 0 1 0 0 1 1 0 1 0 0 0 0
 % 0 1 0 0 0 0 1 0 1 0 0 0 1 0 0 0
 % 0 1 0 0 0 0 0 0 0 0 1 0 0 0 0 0
 % 0 0 1 0 0 1 0 1 0 0 0 0 0 0 0 0
 % 0 0 0 0 0 0 0 0 0 0 0 0 0 0 0 0
 % 0 0 0 1 0 1 0 0 0 0 0 0 0 0 1 0